471,406
311,286
254,267
293,124
681,46
1062,25
709,229
690,378
542,833
561,776
658,554
624,424
753,354
795,369
652,410
618,469
829,554
838,891
769,285
732,81
607,178
488,140
727,264
591,406
231,406
847,919
515,919
980,-6
998,-30
558,237
655,393
664,382
575,300
644,292
1001,243
1155,331
